certificates/rado_a9_c200_N23.drat
-22 -23 0
d -15 -22 -23 0
-23 0
16 0
22 0
-20 0
-14 0
-18 0
3 0
13 0
7 0
21 0
11 0
-1 0
-5 0
-2 0
0
